Instance0
Gap





8.43%
8.43%
8.43%
7.62%
7.48%
6.43%
6.11%
5.94%
5.65%
5.42%
5.38%
5.00%
4.23%
4.23%
4.02%
3.82%
3.79%
3.79%
3.62%
2.85%
2.74%
2.18%
1.90%
1.86%
1.73%
1.67%
1.67%
0
CPXPARAM_MIP_Cuts_Disjunctive-LiftProj-Covers-FlowCovers:Disjunctive 0
CPXPARAM_MIP_Cuts_Disjunctive-LiftProj-Covers-FlowCovers:LiftProj 0
CPXPARAM_MIP_Cuts_Disjunctive-LiftProj-Covers-FlowCovers:Covers 15
CPXPARAM_MIP_Cuts_Disjunctive-LiftProj-Covers-FlowCovers:FlowCovers 0
Instance1
Gap



67.68%
59.00%
57.36%
55.33%
55.30%
55.24%
55.13%
CPXPARAM_MIP_Cuts_Disjunctive-LiftProj-Covers-FlowCovers:Disjunctive 0
CPXPARAM_MIP_Cuts_Disjunctive-LiftProj-Covers-FlowCovers:LiftProj 3
CPXPARAM_MIP_Cuts_Disjunctive-LiftProj-Covers-FlowCovers:Covers 0
CPXPARAM_MIP_Cuts_Disjunctive-LiftProj-Covers-FlowCovers:FlowCovers 5
Instance2
Gap


0.35%
0.35%
0.35%
0
CPXPARAM_MIP_Cuts_Disjunctive-LiftProj-Covers-FlowCovers:Disjunctive 0
CPXPARAM_MIP_Cuts_Disjunctive-LiftProj-Covers-FlowCovers:LiftProj 0
CPXPARAM_MIP_Cuts_Disjunctive-LiftProj-Covers-FlowCovers:Covers 0
CPXPARAM_MIP_Cuts_Disjunctive-LiftProj-Covers-FlowCovers:FlowCovers 0
Instance3
Gap

0.00%
0
CPXPARAM_MIP_Cuts_Disjunctive-LiftProj-Covers-FlowCovers:Disjunctive 0
CPXPARAM_MIP_Cuts_Disjunctive-LiftProj-Covers-FlowCovers:LiftProj 0
CPXPARAM_MIP_Cuts_Disjunctive-LiftProj-Covers-FlowCovers:Covers 0
CPXPARAM_MIP_Cuts_Disjunctive-LiftProj-Covers-FlowCovers:FlowCovers 0
Instance4
Gap



5.62%
5.62%
5.62%
5.56%
5.35%
5.33%
5.00%
4.93%
4.87%
4.80%
4.70%
4.25%
3.82%
3.56%
3.26%
2.78%
2.41%
2.07%
1.91%
1.38%
1.38%
0.97%
0.62%
0.37%
0
CPXPARAM_MIP_Cuts_Disjunctive-LiftProj-Covers-FlowCovers:Disjunctive 0
CPXPARAM_MIP_Cuts_Disjunctive-LiftProj-Covers-FlowCovers:LiftProj 0
CPXPARAM_MIP_Cuts_Disjunctive-LiftProj-Covers-FlowCovers:Covers 5
CPXPARAM_MIP_Cuts_Disjunctive-LiftProj-Covers-FlowCovers:FlowCovers 0
Instance5
Gap



74.62%
68.24%
61.48%
57.66%
56.72%
55.93%
55.60%
54.91%
53.14%
51.83%
51.16%
50.17%
48.50%
42.75%
41.20%
39.16%
37.47%
37.27%
36.41%
35.02%
34.72%
34.34%
33.58%
33.08%
32.23%
31.03%
28.54%
27.75%
26.18%
18.09%
16.79%
16.79%
16.79%
12.84%
10.11%
10.11%
6.45%
0
CPXPARAM_MIP_Cuts_Disjunctive-LiftProj-Covers-FlowCovers:Disjunctive 0
CPXPARAM_MIP_Cuts_Disjunctive-LiftProj-Covers-FlowCovers:LiftProj 0
CPXPARAM_MIP_Cuts_Disjunctive-LiftProj-Covers-FlowCovers:Covers 8
CPXPARAM_MIP_Cuts_Disjunctive-LiftProj-Covers-FlowCovers:FlowCovers 0
Instance6
Gap
111.50%
92.96%
92.96%
92.96%
CPXPARAM_MIP_Cuts_Disjunctive-LiftProj-Covers-FlowCovers:Disjunctive 0
CPXPARAM_MIP_Cuts_Disjunctive-LiftProj-Covers-FlowCovers:LiftProj 0
CPXPARAM_MIP_Cuts_Disjunctive-LiftProj-Covers-FlowCovers:Covers 0
CPXPARAM_MIP_Cuts_Disjunctive-LiftProj-Covers-FlowCovers:FlowCovers 1
Instance7
Gap

23.59%
23.59%
23.59%
23.59%
11.04%
CPXPARAM_MIP_Cuts_Disjunctive-LiftProj-Covers-FlowCovers:Disjunctive 0
CPXPARAM_MIP_Cuts_Disjunctive-LiftProj-Covers-FlowCovers:LiftProj 0
CPXPARAM_MIP_Cuts_Disjunctive-LiftProj-Covers-FlowCovers:Covers 0
CPXPARAM_MIP_Cuts_Disjunctive-LiftProj-Covers-FlowCovers:FlowCovers 1
Instance8
Gap



3.04%
3.04%
3.04%
3.00%
3.00%
2.75%
2.70%
2.32%
2.30%
2.26%
1.84%
1.71%
1.53%
1.50%
1.34%
1.09%
0.90%
0.30%
0
CPXPARAM_MIP_Cuts_Disjunctive-LiftProj-Covers-FlowCovers:Disjunctive 0
CPXPARAM_MIP_Cuts_Disjunctive-LiftProj-Covers-FlowCovers:LiftProj 0
CPXPARAM_MIP_Cuts_Disjunctive-LiftProj-Covers-FlowCovers:Covers 5
CPXPARAM_MIP_Cuts_Disjunctive-LiftProj-Covers-FlowCovers:FlowCovers 0
Instance9
Gap






























19.76%
19.76%
19.76%
18.59%
17.83%
17.62%
17.28%
17.00%
16.99%
15.84%
CPXPARAM_MIP_Cuts_Disjunctive-LiftProj-Covers-FlowCovers:Disjunctive 2
CPXPARAM_MIP_Cuts_Disjunctive-LiftProj-Covers-FlowCovers:LiftProj 0
CPXPARAM_MIP_Cuts_Disjunctive-LiftProj-Covers-FlowCovers:Covers 15
CPXPARAM_MIP_Cuts_Disjunctive-LiftProj-Covers-FlowCovers:FlowCovers 1
Instance10
Gap

0.01%
CPXPARAM_MIP_Cuts_Disjunctive-LiftProj-Covers-FlowCovers:Disjunctive 0
CPXPARAM_MIP_Cuts_Disjunctive-LiftProj-Covers-FlowCovers:LiftProj 0
CPXPARAM_MIP_Cuts_Disjunctive-LiftProj-Covers-FlowCovers:Covers 0
CPXPARAM_MIP_Cuts_Disjunctive-LiftProj-Covers-FlowCovers:FlowCovers 0
Instance11
Gap

0.02%
0.02%
0.02%
0
CPXPARAM_MIP_Cuts_Disjunctive-LiftProj-Covers-FlowCovers:Disjunctive 0
CPXPARAM_MIP_Cuts_Disjunctive-LiftProj-Covers-FlowCovers:LiftProj 0
CPXPARAM_MIP_Cuts_Disjunctive-LiftProj-Covers-FlowCovers:Covers 0
CPXPARAM_MIP_Cuts_Disjunctive-LiftProj-Covers-FlowCovers:FlowCovers 0
Instance12
Gap

















8.51%
8.51%
8.51%
8.19%
8.04%
7.75%
7.51%
7.46%
7.44%
7.40%
7.34%
7.11%
CPXPARAM_MIP_Cuts_Disjunctive-LiftProj-Covers-FlowCovers:Disjunctive 0
CPXPARAM_MIP_Cuts_Disjunctive-LiftProj-Covers-FlowCovers:LiftProj 0
CPXPARAM_MIP_Cuts_Disjunctive-LiftProj-Covers-FlowCovers:Covers 19
CPXPARAM_MIP_Cuts_Disjunctive-LiftProj-Covers-FlowCovers:FlowCovers 0
Instance13
Gap

37.35%
36.13%
33.68%
30.91%
28.81%
25.76%
24.84%
24.26%
24.15%
23.73%
23.72%
23.61%
23.54%
23.38%
23.31%
23.26%
23.23%
22.95%
22.61%
22.49%
22.21%
22.13%
21.49%
21.18%
20.90%
20.79%
20.65%
20.29%
20.23%
CPXPARAM_MIP_Cuts_Disjunctive-LiftProj-Covers-FlowCovers:Disjunctive 0
CPXPARAM_MIP_Cuts_Disjunctive-LiftProj-Covers-FlowCovers:LiftProj 0
CPXPARAM_MIP_Cuts_Disjunctive-LiftProj-Covers-FlowCovers:Covers 13
CPXPARAM_MIP_Cuts_Disjunctive-LiftProj-Covers-FlowCovers:FlowCovers 0
Instance14
Gap

1.86%
1.86%
1.86%
1.86%
0
CPXPARAM_MIP_Cuts_Disjunctive-LiftProj-Covers-FlowCovers:Disjunctive 0
CPXPARAM_MIP_Cuts_Disjunctive-LiftProj-Covers-FlowCovers:LiftProj 0
CPXPARAM_MIP_Cuts_Disjunctive-LiftProj-Covers-FlowCovers:Covers 0
CPXPARAM_MIP_Cuts_Disjunctive-LiftProj-Covers-FlowCovers:FlowCovers 1
Instance15
Gap
112.51%
98.57%
98.57%
29.55%
29.55%
29.55%
CPXPARAM_MIP_Cuts_Disjunctive-LiftProj-Covers-FlowCovers:Disjunctive 0
CPXPARAM_MIP_Cuts_Disjunctive-LiftProj-Covers-FlowCovers:LiftProj 0
CPXPARAM_MIP_Cuts_Disjunctive-LiftProj-Covers-FlowCovers:Covers 0
CPXPARAM_MIP_Cuts_Disjunctive-LiftProj-Covers-FlowCovers:FlowCovers 2
Instance16
Gap



1.66%
1.66%
1.66%
1.65%
1.60%
1.36%
1.35%
1.35%
1.33%
1.33%
0.00%
CPXPARAM_MIP_Cuts_Disjunctive-LiftProj-Covers-FlowCovers:Disjunctive 0
CPXPARAM_MIP_Cuts_Disjunctive-LiftProj-Covers-FlowCovers:LiftProj 0
CPXPARAM_MIP_Cuts_Disjunctive-LiftProj-Covers-FlowCovers:Covers 3
CPXPARAM_MIP_Cuts_Disjunctive-LiftProj-Covers-FlowCovers:FlowCovers 2
Instance17
Gap



47.95%
46.03%
43.51%
42.85%
42.31%
42.16%
41.83%
41.81%
40.75%
CPXPARAM_MIP_Cuts_Disjunctive-LiftProj-Covers-FlowCovers:Disjunctive 0
CPXPARAM_MIP_Cuts_Disjunctive-LiftProj-Covers-FlowCovers:LiftProj 0
CPXPARAM_MIP_Cuts_Disjunctive-LiftProj-Covers-FlowCovers:Covers 4
CPXPARAM_MIP_Cuts_Disjunctive-LiftProj-Covers-FlowCovers:FlowCovers 6
Instance18
Gap
110.91%
93.14%
93.14%
0.05%
0.05%
0.05%
0
CPXPARAM_MIP_Cuts_Disjunctive-LiftProj-Covers-FlowCovers:Disjunctive 0
CPXPARAM_MIP_Cuts_Disjunctive-LiftProj-Covers-FlowCovers:LiftProj 0
CPXPARAM_MIP_Cuts_Disjunctive-LiftProj-Covers-FlowCovers:Covers 1
CPXPARAM_MIP_Cuts_Disjunctive-LiftProj-Covers-FlowCovers:FlowCovers 2
Instance19
Gap
114.31%
97.72%
97.72%
1.26%
1.26%
1.26%
1.26%
1.21%
CPXPARAM_MIP_Cuts_Disjunctive-LiftProj-Covers-FlowCovers:Disjunctive 0
CPXPARAM_MIP_Cuts_Disjunctive-LiftProj-Covers-FlowCovers:LiftProj 0
CPXPARAM_MIP_Cuts_Disjunctive-LiftProj-Covers-FlowCovers:Covers 0
CPXPARAM_MIP_Cuts_Disjunctive-LiftProj-Covers-FlowCovers:FlowCovers 2
Instance20
Gap


0.00%
CPXPARAM_MIP_Cuts_Disjunctive-LiftProj-Covers-FlowCovers:Disjunctive 0
CPXPARAM_MIP_Cuts_Disjunctive-LiftProj-Covers-FlowCovers:LiftProj 0
CPXPARAM_MIP_Cuts_Disjunctive-LiftProj-Covers-FlowCovers:Covers 0
CPXPARAM_MIP_Cuts_Disjunctive-LiftProj-Covers-FlowCovers:FlowCovers 0
Instance21
Gap



23.11%
16.33%
14.19%
14.19%
14.19%
12.22%
11.89%
11.11%
0
CPXPARAM_MIP_Cuts_Disjunctive-LiftProj-Covers-FlowCovers:Disjunctive 0
CPXPARAM_MIP_Cuts_Disjunctive-LiftProj-Covers-FlowCovers:LiftProj 0
CPXPARAM_MIP_Cuts_Disjunctive-LiftProj-Covers-FlowCovers:Covers 1
CPXPARAM_MIP_Cuts_Disjunctive-LiftProj-Covers-FlowCovers:FlowCovers 5
Instance22
Gap

0.39%
0.39%
0.39%
0.39%
0.39%
0.36%
0.33%
CPXPARAM_MIP_Cuts_Disjunctive-LiftProj-Covers-FlowCovers:Disjunctive 0
CPXPARAM_MIP_Cuts_Disjunctive-LiftProj-Covers-FlowCovers:LiftProj 0
CPXPARAM_MIP_Cuts_Disjunctive-LiftProj-Covers-FlowCovers:Covers 1
CPXPARAM_MIP_Cuts_Disjunctive-LiftProj-Covers-FlowCovers:FlowCovers 1
Instance23
Gap

3.15%
3.15%
3.15%
3.10%
0
CPXPARAM_MIP_Cuts_Disjunctive-LiftProj-Covers-FlowCovers:Disjunctive 0
CPXPARAM_MIP_Cuts_Disjunctive-LiftProj-Covers-FlowCovers:LiftProj 0
CPXPARAM_MIP_Cuts_Disjunctive-LiftProj-Covers-FlowCovers:Covers 1
CPXPARAM_MIP_Cuts_Disjunctive-LiftProj-Covers-FlowCovers:FlowCovers 0
Instance24
Gap

10.00%
9.93%
7.82%
7.82%
7.82%
7.47%
7.18%
7.17%
6.42%
4.96%
4.41%
2.66%
1.12%
0
CPXPARAM_MIP_Cuts_Disjunctive-LiftProj-Covers-FlowCovers:Disjunctive 0
CPXPARAM_MIP_Cuts_Disjunctive-LiftProj-Covers-FlowCovers:LiftProj 1
CPXPARAM_MIP_Cuts_Disjunctive-LiftProj-Covers-FlowCovers:Covers 4
CPXPARAM_MIP_Cuts_Disjunctive-LiftProj-Covers-FlowCovers:FlowCovers 0
Instance25
Gap



0.00%
CPXPARAM_MIP_Cuts_Disjunctive-LiftProj-Covers-FlowCovers:Disjunctive 0
CPXPARAM_MIP_Cuts_Disjunctive-LiftProj-Covers-FlowCovers:LiftProj 0
CPXPARAM_MIP_Cuts_Disjunctive-LiftProj-Covers-FlowCovers:Covers 0
CPXPARAM_MIP_Cuts_Disjunctive-LiftProj-Covers-FlowCovers:FlowCovers 0
Instance26
Gap
0.00%
CPXPARAM_MIP_Cuts_Disjunctive-LiftProj-Covers-FlowCovers:Disjunctive 0
CPXPARAM_MIP_Cuts_Disjunctive-LiftProj-Covers-FlowCovers:LiftProj 0
CPXPARAM_MIP_Cuts_Disjunctive-LiftProj-Covers-FlowCovers:Covers 0
CPXPARAM_MIP_Cuts_Disjunctive-LiftProj-Covers-FlowCovers:FlowCovers 0
Instance27
Gap

0.42%
0.42%
0.42%
0.42%
0.42%
0.42%
0.33%
CPXPARAM_MIP_Cuts_Disjunctive-LiftProj-Covers-FlowCovers:Disjunctive 0
CPXPARAM_MIP_Cuts_Disjunctive-LiftProj-Covers-FlowCovers:LiftProj 0
CPXPARAM_MIP_Cuts_Disjunctive-LiftProj-Covers-FlowCovers:Covers 1
CPXPARAM_MIP_Cuts_Disjunctive-LiftProj-Covers-FlowCovers:FlowCovers 1
Instance28
Gap



9.39%
9.39%
9.39%
8.62%
8.60%
8.30%
7.92%
7.76%
6.20%
2.01%
1.99%
1.30%
1.30%
1.14%
1.00%
1.00%
0.91%
0.77%
0
CPXPARAM_MIP_Cuts_Disjunctive-LiftProj-Covers-FlowCovers:Disjunctive 0
CPXPARAM_MIP_Cuts_Disjunctive-LiftProj-Covers-FlowCovers:LiftProj 0
CPXPARAM_MIP_Cuts_Disjunctive-LiftProj-Covers-FlowCovers:Covers 7
CPXPARAM_MIP_Cuts_Disjunctive-LiftProj-Covers-FlowCovers:FlowCovers 0
Instance29
Gap
111.49%
406.57%
82.87%
82.87%
82.87%
82.87%
CPXPARAM_MIP_Cuts_Disjunctive-LiftProj-Covers-FlowCovers:Disjunctive 0
CPXPARAM_MIP_Cuts_Disjunctive-LiftProj-Covers-FlowCovers:LiftProj 0
CPXPARAM_MIP_Cuts_Disjunctive-LiftProj-Covers-FlowCovers:Covers 3
CPXPARAM_MIP_Cuts_Disjunctive-LiftProj-Covers-FlowCovers:FlowCovers 0
Instance30
Gap
120.75%
227.70%
17.33%
17.33%
0.85%
0.85%
0.85%
0.85%
CPXPARAM_MIP_Cuts_Disjunctive-LiftProj-Covers-FlowCovers:Disjunctive 0
CPXPARAM_MIP_Cuts_Disjunctive-LiftProj-Covers-FlowCovers:LiftProj 0
CPXPARAM_MIP_Cuts_Disjunctive-LiftProj-Covers-FlowCovers:Covers 1
CPXPARAM_MIP_Cuts_Disjunctive-LiftProj-Covers-FlowCovers:FlowCovers 0
Instance31
Gap

5.20%
5.20%
5.20%
5.20%
1.76%
CPXPARAM_MIP_Cuts_Disjunctive-LiftProj-Covers-FlowCovers:Disjunctive 0
CPXPARAM_MIP_Cuts_Disjunctive-LiftProj-Covers-FlowCovers:LiftProj 0
CPXPARAM_MIP_Cuts_Disjunctive-LiftProj-Covers-FlowCovers:Covers 0
CPXPARAM_MIP_Cuts_Disjunctive-LiftProj-Covers-FlowCovers:FlowCovers 1
Instance32
Gap





3.94%
3.94%
3.94%
3.76%
3.73%
3.59%
0
CPXPARAM_MIP_Cuts_Disjunctive-LiftProj-Covers-FlowCovers:Disjunctive 0
CPXPARAM_MIP_Cuts_Disjunctive-LiftProj-Covers-FlowCovers:LiftProj 0
CPXPARAM_MIP_Cuts_Disjunctive-LiftProj-Covers-FlowCovers:Covers 4
CPXPARAM_MIP_Cuts_Disjunctive-LiftProj-Covers-FlowCovers:FlowCovers 3
Instance33
Gap



36.97%
0
CPXPARAM_MIP_Cuts_Disjunctive-LiftProj-Covers-FlowCovers:Disjunctive 0
CPXPARAM_MIP_Cuts_Disjunctive-LiftProj-Covers-FlowCovers:LiftProj 0
CPXPARAM_MIP_Cuts_Disjunctive-LiftProj-Covers-FlowCovers:Covers 0
CPXPARAM_MIP_Cuts_Disjunctive-LiftProj-Covers-FlowCovers:FlowCovers 4
Instance34
Gap

0.14%
0
CPXPARAM_MIP_Cuts_Disjunctive-LiftProj-Covers-FlowCovers:Disjunctive 0
CPXPARAM_MIP_Cuts_Disjunctive-LiftProj-Covers-FlowCovers:LiftProj 0
CPXPARAM_MIP_Cuts_Disjunctive-LiftProj-Covers-FlowCovers:Covers 0
CPXPARAM_MIP_Cuts_Disjunctive-LiftProj-Covers-FlowCovers:FlowCovers 0
Instance35
Gap

2.41%
2.41%
2.41%
2.38%
0
CPXPARAM_MIP_Cuts_Disjunctive-LiftProj-Covers-FlowCovers:Disjunctive 0
CPXPARAM_MIP_Cuts_Disjunctive-LiftProj-Covers-FlowCovers:LiftProj 0
CPXPARAM_MIP_Cuts_Disjunctive-LiftProj-Covers-FlowCovers:Covers 1
CPXPARAM_MIP_Cuts_Disjunctive-LiftProj-Covers-FlowCovers:FlowCovers 0
Instance36
Gap



7.01%
7.01%
7.01%
6.96%
6.39%
6.25%
0
CPXPARAM_MIP_Cuts_Disjunctive-LiftProj-Covers-FlowCovers:Disjunctive 0
CPXPARAM_MIP_Cuts_Disjunctive-LiftProj-Covers-FlowCovers:LiftProj 0
CPXPARAM_MIP_Cuts_Disjunctive-LiftProj-Covers-FlowCovers:Covers 3
CPXPARAM_MIP_Cuts_Disjunctive-LiftProj-Covers-FlowCovers:FlowCovers 3
Instance37
Gap











91.22%
90.22%
89.89%
87.48%
83.62%
83.21%
81.71%
81.24%
78.11%
76.89%
75.59%
73.66%
73.18%
71.09%
70.87%
70.40%
69.67%
69.40%
68.93%
68.81%
68.78%
68.18%
67.82%
67.40%
67.27%
67.15%
67.11%
66.76%
63.43%
CPXPARAM_MIP_Cuts_Disjunctive-LiftProj-Covers-FlowCovers:Disjunctive 1
CPXPARAM_MIP_Cuts_Disjunctive-LiftProj-Covers-FlowCovers:LiftProj 0
CPXPARAM_MIP_Cuts_Disjunctive-LiftProj-Covers-FlowCovers:Covers 18
CPXPARAM_MIP_Cuts_Disjunctive-LiftProj-Covers-FlowCovers:FlowCovers 2
Instance38
Gap

0.21%
0.21%
0.21%
0.21%
0
CPXPARAM_MIP_Cuts_Disjunctive-LiftProj-Covers-FlowCovers:Disjunctive 0
CPXPARAM_MIP_Cuts_Disjunctive-LiftProj-Covers-FlowCovers:LiftProj 0
CPXPARAM_MIP_Cuts_Disjunctive-LiftProj-Covers-FlowCovers:Covers 0
CPXPARAM_MIP_Cuts_Disjunctive-LiftProj-Covers-FlowCovers:FlowCovers 1
Instance39
Gap


0.50%
0.50%
0.50%
0
CPXPARAM_MIP_Cuts_Disjunctive-LiftProj-Covers-FlowCovers:Disjunctive 0
CPXPARAM_MIP_Cuts_Disjunctive-LiftProj-Covers-FlowCovers:LiftProj 0
CPXPARAM_MIP_Cuts_Disjunctive-LiftProj-Covers-FlowCovers:Covers 0
CPXPARAM_MIP_Cuts_Disjunctive-LiftProj-Covers-FlowCovers:FlowCovers 0
